Version identifier: 22.1.1.0 | 2022-11-28 | 9160aff4d
CPXPARAM_Threads                                 8
CPXPARAM_Emphasis_MIP                            5
CPXPARAM_TimeLimit                               3600
CPXPARAM_MIP_Tolerances_MIPGap                   0.029999999999999999
Tried aggregator 3 times.
MIP Presolve eliminated 74 rows and 37 columns.
MIP Presolve modified 3 coefficients.
Aggregator did 21 substitutions.
Reduced MIP has 46 rows, 35 columns, and 148 nonzeros.
Reduced MIP has 23 binaries, 12 generals, 0 SOSs, and 0 indicators.
Presolve time = 0.02 sec. (0.31 ticks)
Found incumbent of value 296.000000 after 0.04 sec. (0.60 ticks)
Probing time = 0.00 sec. (0.04 ticks)
Tried aggregator 1 time.
Detecting symmetries...
Reduced MIP has 46 rows, 35 columns, and 148 nonzeros.
Reduced MIP has 23 binaries, 12 generals, 0 SOSs, and 0 indicators.
Presolve time = 0.00 sec. (0.09 ticks)
Probing time = 0.00 sec. (0.04 ticks)
Clique table members: 10.
MIP emphasis: heuristic.
MIP search method: dynamic search.
Parallel mode: deterministic, using up to 8 threads.
Root relaxation solution time = 0.00 sec. (0.10 ticks)

        Nodes                                         Cuts/
   Node  Left     Objective  IInf  Best Integer    Best Bound    ItCnt     Gap

*     0+    0                          296.0000        0.0000           100.00%
*     0+    0                          166.0000        0.0000           100.00%
      0     0        cutoff            166.0000      166.0000       20    0.00%
      0     0        cutoff            166.0000      166.0000       20    0.00%
Elapsed time = 0.06 sec. (0.99 ticks, tree = 0.01 MB, solutions = 2)
Version identifier: 22.1.1.0 | 2022-11-28 | 9160aff4d
CPXPARAM_Threads                                 8
CPXPARAM_Emphasis_MIP                            5
CPXPARAM_TimeLimit                               3600
CPXPARAM_MIP_Tolerances_MIPGap                   0.029999999999999999
Tried aggregator 4 times.
MIP Presolve eliminated 106 rows and 55 columns.
MIP Presolve modified 10 coefficients.
Aggregator did 32 substitutions.
Reduced MIP has 55 rows, 43 columns, and 183 nonzeros.
Reduced MIP has 29 binaries, 14 generals, 0 SOSs, and 0 indicators.
Presolve time = 0.00 sec. (0.49 ticks)
Found incumbent of value 322.000000 after 0.00 sec. (0.84 ticks)
Probing time = 0.00 sec. (0.07 ticks)
Tried aggregator 1 time.
Detecting symmetries...
Reduced MIP has 55 rows, 43 columns, and 183 nonzeros.
Reduced MIP has 29 binaries, 14 generals, 0 SOSs, and 0 indicators.
Presolve time = 0.00 sec. (0.11 ticks)
Probing time = 0.00 sec. (0.07 ticks)
Clique table members: 16.
MIP emphasis: heuristic.
MIP search method: dynamic search.
Parallel mode: deterministic, using up to 8 threads.
Root relaxation solution time = 0.00 sec. (0.11 ticks)

        Nodes                                         Cuts/
   Node  Left     Objective  IInf  Best Integer    Best Bound    ItCnt     Gap

*     0+    0                          322.0000       65.0000            79.81%
*     0     0      integral     0      192.0000      192.0000        9    0.00%
Elapsed time = 0.00 sec. (1.33 ticks, tree = 0.00 MB, solutions = 2)
Version identifier: 22.1.1.0 | 2022-11-28 | 9160aff4d
CPXPARAM_Threads                                 8
CPXPARAM_Emphasis_MIP                            5
CPXPARAM_TimeLimit                               3600
CPXPARAM_MIP_Tolerances_MIPGap                   0.029999999999999999
Tried aggregator 3 times.
MIP Presolve eliminated 114 rows and 57 columns.
MIP Presolve modified 10 coefficients.
Aggregator did 33 substitutions.
Reduced MIP has 69 rows, 56 columns, and 228 nonzeros.
Reduced MIP has 39 binaries, 17 generals, 0 SOSs, and 0 indicators.
Presolve time = 0.00 sec. (0.53 ticks)
Found incumbent of value 358.000000 after 0.01 sec. (0.99 ticks)
Probing time = 0.00 sec. (0.12 ticks)
Tried aggregator 1 time.
Detecting symmetries...
Reduced MIP has 69 rows, 56 columns, and 228 nonzeros.
Reduced MIP has 39 binaries, 17 generals, 0 SOSs, and 0 indicators.
Presolve time = 0.00 sec. (0.14 ticks)
Probing time = 0.00 sec. (0.12 ticks)
Clique table members: 108.
MIP emphasis: heuristic.
MIP search method: dynamic search.
Parallel mode: deterministic, using up to 8 threads.
Root relaxation solution time = 0.00 sec. (0.14 ticks)

        Nodes                                         Cuts/
   Node  Left     Objective  IInf  Best Integer    Best Bound    ItCnt     Gap

*     0+    0                          358.0000       65.0000            81.84%
*     0     0      integral     0      192.0000      192.0000       13    0.00%
Elapsed time = 0.01 sec. (1.64 ticks, tree = 0.00 MB, solutions = 2)

Root node processing (before b&c):
  Real time             =    0.06 sec. (0.99 ticks)
Parallel b&c, 8 threads:
  Real time             =    0.00 sec. (0.00 ticks)
  Sync time (average)   =    0.00 sec.
  Wait time (average)   =    0.00 sec.
                          ------------
Total (root+branch&cut) =    0.06 sec. (0.99 ticks)

Root node processing (before b&c):
  Real time             =    0.00 sec. (1.34 ticks)
Parallel b&c, 8 threads:
  Real time             =    0.00 sec. (0.00 ticks)
  Sync time (average)   =    0.00 sec.
  Wait time (average)   =    0.00 sec.
                          ------------
Total (root+branch&cut) =    0.00 sec. (1.34 ticks)
Version identifier: 22.1.1.0 | 2022-11-28 | 9160aff4d
CPXPARAM_Threads                                 8
CPXPARAM_Emphasis_MIP                            5
CPXPARAM_TimeLimit                               3600
CPXPARAM_MIP_Tolerances_MIPGap                   0.029999999999999999
Tried aggregator 3 times.
MIP Presolve eliminated 256 rows and 139 columns.
MIP Presolve modified 10 coefficients.
Aggregator did 45 substitutions.
Reduced MIP has 101 rows, 76 columns, and 322 nonzeros.
Reduced MIP has 54 binaries, 22 generals, 0 SOSs, and 0 indicators.
Presolve time = 0.00 sec. (0.80 ticks)
Found incumbent of value 618.000000 after 0.01 sec. (1.41 ticks)
Probing time = 0.00 sec. (0.19 ticks)
Tried aggregator 1 time.
Detecting symmetries...
MIP Presolve eliminated 0 rows and 1 columns.
Reduced MIP has 101 rows, 75 columns, and 322 nonzeros.
Reduced MIP has 53 binaries, 22 generals, 0 SOSs, and 0 indicators.
Presolve time = 0.00 sec. (0.21 ticks)
Probing time = 0.00 sec. (0.19 ticks)
Clique table members: 171.
MIP emphasis: heuristic.
MIP search method: dynamic search.
Parallel mode: deterministic, using up to 8 threads.
Root relaxation solution time = 0.00 sec. (0.21 ticks)

        Nodes                                         Cuts/
   Node  Left     Objective  IInf  Best Integer    Best Bound    ItCnt     Gap

*     0+    0                          618.0000       65.0000            89.48%
*     0     0      integral     0      192.0000      192.0000       19    0.00%
Elapsed time = 0.01 sec. (2.43 ticks, tree = 0.00 MB, solutions = 2)
Version identifier: 22.1.1.0 | 2022-11-28 | 9160aff4d
CPXPARAM_Threads                                 8
CPXPARAM_Emphasis_MIP                            5
CPXPARAM_TimeLimit                               3600
CPXPARAM_MIP_Tolerances_MIPGap                   0.029999999999999999
Tried aggregator 3 times.
MIP Presolve eliminated 292 rows and 160 columns.
MIP Presolve modified 10 coefficients.
Aggregator did 51 substitutions.
Reduced MIP has 121 rows, 89 columns, and 382 nonzeros.
Reduced MIP has 63 binaries, 26 generals, 0 SOSs, and 0 indicators.
Presolve time = 0.01 sec. (0.93 ticks)
Found incumbent of value 426.000000 after 0.01 sec. (1.73 ticks)
Probing time = 0.00 sec. (0.25 ticks)
Tried aggregator 1 time.
Detecting symmetries...
MIP Presolve eliminated 0 rows and 1 columns.
Reduced MIP has 121 rows, 88 columns, and 382 nonzeros.
Reduced MIP has 62 binaries, 26 generals, 0 SOSs, and 0 indicators.
Presolve time = 0.00 sec. (0.25 ticks)
Probing time = 0.00 sec. (0.24 ticks)
Clique table members: 232.
MIP emphasis: heuristic.
MIP search method: dynamic search.
Parallel mode: deterministic, using up to 8 threads.
Root relaxation solution time = 0.00 sec. (0.24 ticks)

        Nodes                                         Cuts/
   Node  Left     Objective  IInf  Best Integer    Best Bound    ItCnt     Gap

*     0+    0                          426.0000        0.0000           100.00%
*     0     0      integral     0      192.0000      192.0000       17    0.00%
Elapsed time = 0.02 sec. (2.98 ticks, tree = 0.00 MB, solutions = 2)
Version identifier: 22.1.1.0 | 2022-11-28 | 9160aff4d
CPXPARAM_Threads                                 8
CPXPARAM_Emphasis_MIP                            5
CPXPARAM_TimeLimit                               3600
CPXPARAM_MIP_Tolerances_MIPGap                   0.029999999999999999
Tried aggregator 3 times.
MIP Presolve eliminated 438 rows and 242 columns.
MIP Presolve modified 3 coefficients.
Aggregator did 65 substitutions.
Reduced MIP has 240 rows, 168 columns, and 751 nonzeros.
Reduced MIP has 125 binaries, 43 generals, 0 SOSs, and 0 indicators.
Presolve time = 0.01 sec. (1.41 ticks)
Probing time = 0.00 sec. (0.77 ticks)
Tried aggregator 1 time.
Detecting symmetries...
MIP Presolve eliminated 0 rows and 1 columns.
Reduced MIP has 240 rows, 167 columns, and 751 nonzeros.
Reduced MIP has 124 binaries, 43 generals, 0 SOSs, and 0 indicators.
Presolve time = 0.00 sec. (0.50 ticks)
Probing time = 0.00 sec. (0.76 ticks)
Clique table members: 564.
MIP emphasis: heuristic.
MIP search method: dynamic search.
Parallel mode: deterministic, using up to 8 threads.
Root relaxation solution time = 0.01 sec. (0.92 ticks)

        Nodes                                         Cuts/
   Node  Left     Objective  IInf  Best Integer    Best Bound    ItCnt     Gap

*     0+    0                          748.0000       65.0000            91.31%
      0     0      296.0000    37      748.0000      296.0000       77   60.43%
*     0+    0                          426.0000      296.0000            30.52%
*     0+    0                          296.0000      296.0000             0.00%
      0     0        cutoff            296.0000      296.0000       77    0.00%
Elapsed time = 0.06 sec. (7.10 ticks, tree = 0.01 MB, solutions = 3)

Root node processing (before b&c):
  Real time             =    0.06 sec. (7.12 ticks)
Parallel b&c, 8 threads:
  Real time             =    0.00 sec. (0.00 ticks)
  Sync time (average)   =    0.00 sec.
  Wait time (average)   =    0.00 sec.
                          ------------
Total (root+branch&cut) =    0.06 sec. (7.12 ticks)

Root node processing (before b&c):
  Real time             =    0.02 sec. (2.99 ticks)
Parallel b&c, 8 threads:
  Real time             =    0.00 sec. (0.00 ticks)
  Sync time (average)   =    0.00 sec.
  Wait time (average)   =    0.00 sec.
                          ------------
Total (root+branch&cut) =    0.02 sec. (2.99 ticks)

Root node processing (before b&c):
  Real time             =    0.01 sec. (2.43 ticks)
Parallel b&c, 8 threads:
  Real time             =    0.00 sec. (0.00 ticks)
  Sync time (average)   =    0.00 sec.
  Wait time (average)   =    0.00 sec.
                          ------------
Total (root+branch&cut) =    0.01 sec. (2.43 ticks)

Root node processing (before b&c):
  Real time             =    0.01 sec. (1.65 ticks)
Parallel b&c, 8 threads:
  Real time             =    0.00 sec. (0.00 ticks)
  Sync time (average)   =    0.00 sec.
  Wait time (average)   =    0.00 sec.
                          ------------
Total (root+branch&cut) =    0.01 sec. (1.65 ticks)
Version identifier: 22.1.1.0 | 2022-11-28 | 9160aff4d
CPXPARAM_Threads                                 8
CPXPARAM_Emphasis_MIP                            5
CPXPARAM_TimeLimit                               3600
CPXPARAM_MIP_Tolerances_MIPGap                   0.029999999999999999
Tried aggregator 3 times.
MIP Presolve eliminated 74 rows and 37 columns.
MIP Presolve modified 3 coefficients.
Aggregator did 21 substitutions.
Reduced MIP has 46 rows, 35 columns, and 148 nonzeros.
Reduced MIP has 23 binaries, 12 generals, 0 SOSs, and 0 indicators.
Presolve time = 0.00 sec. (0.31 ticks)
Found incumbent of value 296.000000 after 0.00 sec. (0.60 ticks)
Probing time = 0.00 sec. (0.04 ticks)
Tried aggregator 1 time.
Detecting symmetries...
Reduced MIP has 46 rows, 35 columns, and 148 nonzeros.
Reduced MIP has 23 binaries, 12 generals, 0 SOSs, and 0 indicators.
Presolve time = 0.00 sec. (0.09 ticks)
Probing time = 0.00 sec. (0.04 ticks)
Clique table members: 10.
MIP emphasis: heuristic.
MIP search method: dynamic search.
Parallel mode: deterministic, using up to 8 threads.
Root relaxation solution time = 0.00 sec. (0.10 ticks)

        Nodes                                         Cuts/
   Node  Left     Objective  IInf  Best Integer    Best Bound    ItCnt     Gap

*     0+    0                          296.0000        0.0000           100.00%
*     0+    0                          166.0000        0.0000           100.00%
      0     0        cutoff            166.0000      166.0000       20    0.00%
      0     0        cutoff            166.0000      166.0000       20    0.00%
Elapsed time = 0.01 sec. (0.99 ticks, tree = 0.01 MB, solutions = 2)
Version identifier: 22.1.1.0 | 2022-11-28 | 9160aff4d
CPXPARAM_Threads                                 8
CPXPARAM_Emphasis_MIP                            5
CPXPARAM_TimeLimit                               3600
CPXPARAM_MIP_Tolerances_MIPGap                   0.029999999999999999
Tried aggregator 4 times.
MIP Presolve eliminated 106 rows and 55 columns.
MIP Presolve modified 10 coefficients.
Aggregator did 32 substitutions.
Reduced MIP has 55 rows, 43 columns, and 183 nonzeros.
Reduced MIP has 29 binaries, 14 generals, 0 SOSs, and 0 indicators.
Presolve time = 0.00 sec. (0.49 ticks)
Found incumbent of value 322.000000 after 0.00 sec. (0.84 ticks)
Probing time = 0.00 sec. (0.07 ticks)
Tried aggregator 1 time.
Detecting symmetries...
Reduced MIP has 55 rows, 43 columns, and 183 nonzeros.
Reduced MIP has 29 binaries, 14 generals, 0 SOSs, and 0 indicators.
Presolve time = 0.00 sec. (0.11 ticks)
Probing time = 0.00 sec. (0.07 ticks)
Clique table members: 16.
MIP emphasis: heuristic.
MIP search method: dynamic search.
Parallel mode: deterministic, using up to 8 threads.
Root relaxation solution time = 0.00 sec. (0.11 ticks)

        Nodes                                         Cuts/
   Node  Left     Objective  IInf  Best Integer    Best Bound    ItCnt     Gap

*     0+    0                          322.0000       65.0000            79.81%
*     0     0      integral     0      192.0000      192.0000        9    0.00%
Elapsed time = 0.01 sec. (1.33 ticks, tree = 0.00 MB, solutions = 2)
Version identifier: 22.1.1.0 | 2022-11-28 | 9160aff4d
CPXPARAM_Threads                                 8
CPXPARAM_Emphasis_MIP                            5
CPXPARAM_TimeLimit                               3600
CPXPARAM_MIP_Tolerances_MIPGap                   0.029999999999999999
Tried aggregator 3 times.
MIP Presolve eliminated 114 rows and 57 columns.
MIP Presolve modified 10 coefficients.
Aggregator did 33 substitutions.
Reduced MIP has 69 rows, 56 columns, and 228 nonzeros.
Reduced MIP has 39 binaries, 17 generals, 0 SOSs, and 0 indicators.
Presolve time = 0.00 sec. (0.53 ticks)
Found incumbent of value 358.000000 after 0.00 sec. (0.99 ticks)
Probing time = 0.00 sec. (0.12 ticks)
Tried aggregator 1 time.
Detecting symmetries...
Reduced MIP has 69 rows, 56 columns, and 228 nonzeros.
Reduced MIP has 39 binaries, 17 generals, 0 SOSs, and 0 indicators.
Presolve time = 0.00 sec. (0.14 ticks)
Probing time = 0.00 sec. (0.12 ticks)
Clique table members: 108.
MIP emphasis: heuristic.
MIP search method: dynamic search.
Parallel mode: deterministic, using up to 8 threads.
Root relaxation solution time = 0.00 sec. (0.14 ticks)

        Nodes                                         Cuts/
   Node  Left     Objective  IInf  Best Integer    Best Bound    ItCnt     Gap

*     0+    0                          358.0000       65.0000            81.84%
*     0     0      integral     0      192.0000      192.0000       13    0.00%
Elapsed time = 0.01 sec. (1.64 ticks, tree = 0.00 MB, solutions = 2)

Root node processing (before b&c):
  Real time             =    0.01 sec. (1.34 ticks)
Parallel b&c, 8 threads:
  Real time             =    0.00 sec. (0.00 ticks)
  Sync time (average)   =    0.00 sec.
  Wait time (average)   =    0.00 sec.
                          ------------
Total (root+branch&cut) =    0.01 sec. (1.34 ticks)

Root node processing (before b&c):
  Real time             =    0.01 sec. (0.99 ticks)
Parallel b&c, 8 threads:
  Real time             =    0.00 sec. (0.00 ticks)
  Sync time (average)   =    0.00 sec.
  Wait time (average)   =    0.00 sec.
                          ------------
Total (root+branch&cut) =    0.01 sec. (0.99 ticks)
Version identifier: 22.1.1.0 | 2022-11-28 | 9160aff4d
CPXPARAM_Threads                                 8
CPXPARAM_Emphasis_MIP                            5
CPXPARAM_TimeLimit                               3600
CPXPARAM_MIP_Tolerances_MIPGap                   0.029999999999999999
Tried aggregator 3 times.
MIP Presolve eliminated 256 rows and 139 columns.
MIP Presolve modified 10 coefficients.
Aggregator did 45 substitutions.
Reduced MIP has 101 rows, 76 columns, and 322 nonzeros.
Reduced MIP has 54 binaries, 22 generals, 0 SOSs, and 0 indicators.
Presolve time = 0.00 sec. (0.80 ticks)
Found incumbent of value 618.000000 after 0.00 sec. (1.41 ticks)
Probing time = 0.00 sec. (0.19 ticks)
Tried aggregator 1 time.
Detecting symmetries...
MIP Presolve eliminated 0 rows and 1 columns.
Reduced MIP has 101 rows, 75 columns, and 322 nonzeros.
Reduced MIP has 53 binaries, 22 generals, 0 SOSs, and 0 indicators.
Presolve time = 0.00 sec. (0.21 ticks)
Probing time = 0.00 sec. (0.19 ticks)
Clique table members: 171.
MIP emphasis: heuristic.
MIP search method: dynamic search.
Parallel mode: deterministic, using up to 8 threads.
Root relaxation solution time = 0.00 sec. (0.21 ticks)

        Nodes                                         Cuts/
   Node  Left     Objective  IInf  Best Integer    Best Bound    ItCnt     Gap

*     0+    0                          618.0000       65.0000            89.48%
*     0     0      integral     0      192.0000      192.0000       19    0.00%
Elapsed time = 0.01 sec. (2.43 ticks, tree = 0.00 MB, solutions = 2)
Version identifier: 22.1.1.0 | 2022-11-28 | 9160aff4d
CPXPARAM_Threads                                 8
CPXPARAM_Emphasis_MIP                            5
CPXPARAM_TimeLimit                               3600
CPXPARAM_MIP_Tolerances_MIPGap                   0.029999999999999999
Tried aggregator 3 times.
MIP Presolve eliminated 292 rows and 160 columns.
MIP Presolve modified 10 coefficients.
Aggregator did 51 substitutions.
Reduced MIP has 121 rows, 89 columns, and 382 nonzeros.
Reduced MIP has 63 binaries, 26 generals, 0 SOSs, and 0 indicators.
Presolve time = 0.01 sec. (0.93 ticks)
Found incumbent of value 426.000000 after 0.01 sec. (1.73 ticks)
Probing time = 0.00 sec. (0.25 ticks)
Tried aggregator 1 time.
Detecting symmetries...
MIP Presolve eliminated 0 rows and 1 columns.
Reduced MIP has 121 rows, 88 columns, and 382 nonzeros.
Reduced MIP has 62 binaries, 26 generals, 0 SOSs, and 0 indicators.
Presolve time = 0.00 sec. (0.25 ticks)
Probing time = 0.00 sec. (0.24 ticks)
Clique table members: 232.
MIP emphasis: heuristic.
MIP search method: dynamic search.
Parallel mode: deterministic, using up to 8 threads.
Root relaxation solution time = 0.00 sec. (0.24 ticks)

        Nodes                                         Cuts/
   Node  Left     Objective  IInf  Best Integer    Best Bound    ItCnt     Gap

*     0+    0                          426.0000        0.0000           100.00%
*     0     0      integral     0      192.0000      192.0000       17    0.00%
Elapsed time = 0.02 sec. (2.98 ticks, tree = 0.00 MB, solutions = 2)
Version identifier: 22.1.1.0 | 2022-11-28 | 9160aff4d
CPXPARAM_Threads                                 8
CPXPARAM_Emphasis_MIP                            5
CPXPARAM_TimeLimit                               3600
CPXPARAM_MIP_Tolerances_MIPGap                   0.029999999999999999
Tried aggregator 3 times.
MIP Presolve eliminated 438 rows and 242 columns.
MIP Presolve modified 3 coefficients.
Aggregator did 65 substitutions.
Reduced MIP has 240 rows, 168 columns, and 751 nonzeros.
Reduced MIP has 125 binaries, 43 generals, 0 SOSs, and 0 indicators.
Presolve time = 0.00 sec. (1.41 ticks)
Probing time = 0.00 sec. (0.77 ticks)
Tried aggregator 1 time.
Detecting symmetries...
MIP Presolve eliminated 0 rows and 1 columns.
Reduced MIP has 240 rows, 167 columns, and 751 nonzeros.
Reduced MIP has 124 binaries, 43 generals, 0 SOSs, and 0 indicators.
Presolve time = 0.00 sec. (0.50 ticks)
Probing time = 0.00 sec. (0.76 ticks)
Clique table members: 564.
MIP emphasis: heuristic.
MIP search method: dynamic search.
Parallel mode: deterministic, using up to 8 threads.
Root relaxation solution time = 0.01 sec. (0.92 ticks)

        Nodes                                         Cuts/
   Node  Left     Objective  IInf  Best Integer    Best Bound    ItCnt     Gap

*     0+    0                          748.0000       65.0000            91.31%
      0     0      296.0000    37      748.0000      296.0000       77   60.43%
*     0+    0                          426.0000      296.0000            30.52%
*     0+    0                          296.0000      296.0000             0.00%
      0     0        cutoff            296.0000      296.0000       77    0.00%
Elapsed time = 0.03 sec. (7.10 ticks, tree = 0.01 MB, solutions = 3)

Root node processing (before b&c):
  Real time             =    0.03 sec. (7.12 ticks)
Parallel b&c, 8 threads:
  Real time             =    0.00 sec. (0.00 ticks)
  Sync time (average)   =    0.00 sec.
  Wait time (average)   =    0.00 sec.
                          ------------
Total (root+branch&cut) =    0.03 sec. (7.12 ticks)

Root node processing (before b&c):
  Real time             =    0.02 sec. (2.99 ticks)
Parallel b&c, 8 threads:
  Real time             =    0.00 sec. (0.00 ticks)
  Sync time (average)   =    0.00 sec.
  Wait time (average)   =    0.00 sec.
                          ------------
Total (root+branch&cut) =    0.02 sec. (2.99 ticks)

Root node processing (before b&c):
  Real time             =    0.01 sec. (2.43 ticks)
Parallel b&c, 8 threads:
  Real time             =    0.00 sec. (0.00 ticks)
  Sync time (average)   =    0.00 sec.
  Wait time (average)   =    0.00 sec.
                          ------------
Total (root+branch&cut) =    0.01 sec. (2.43 ticks)

Root node processing (before b&c):
  Real time             =    0.01 sec. (1.65 ticks)
Parallel b&c, 8 threads:
  Real time             =    0.00 sec. (0.00 ticks)
  Sync time (average)   =    0.00 sec.
  Wait time (average)   =    0.00 sec.
                          ------------
Total (root+branch&cut) =    0.01 sec. (1.65 ticks)
